NAME : rnd4_20.tsp
TYPE : TSP
DIMENSION : 20
EDGE_WEIGHT_TYPE : EUC_2D
NODE_COORD_SECTION
1 547 383
2 870 950
3 892 863
4 209 111
5 853 167
6 479 294
7 668 971
8 47 723
9 787 134
10 110 300
11 916 348
12 114 393
13 394 341
14 585 103
15 328 487
16 929 807
17 83 159
18 111 164
19 368 834
20 652 553
